% File represents an instance of a Composite Structure problem to be solved by a CP framework
% Created on 2025-03-25 14:06:15.296
T = 46;
n = 36;
m = 60;
edges = [(2, 1),
(8, 7),
(14, 13),
(20, 19),
(25, 26),
(32, 31),
(2, 3),
(8, 9),
(14, 15),
(20, 21),
(26, 27),
(32, 33),
(3, 4),
(9, 10),
(15, 16),
(21, 22),
(27, 28),
(33, 34),
(5, 4),
(11, 10),
(17, 16),
(23, 22),
(28, 29),
(34, 35),
(5, 6),
(12, 11),
(18, 17),
(24, 23),
(30, 29),
(35, 36),
(1, 7),
(7, 13),
(13, 19),
(25, 19),
(25, 31),
(2, 8),
(8, 14),
(14, 20),
(20, 26),
(32, 26),
(3, 9),
(9, 15),
(15, 21),
(21, 27),
(33, 27),
(4, 10),
(10, 16),
(16, 22),
(22, 28),
(34, 28),
(5, 11),
(11, 17),
(17, 23),
(23, 29),
(35, 29),
(12, 6),
(12, 18),
(18, 24),
(24, 30),
(30, 36)];
counts = [|14, 6, 8, 16,
|14, 8, 8, 16,
|14, 6, 8, 8,
|14, 4, 8, 6,
|14, 4, 10, 8,
|10, 2, 10, 8,
|10, 6, 8, 10,
|10, 6, 8, 12,
|10, 6, 8, 8,
|10, 2, 8, 6,
|12, 4, 10, 8,
|12, 4, 10, 10,
|6, 6, 4, 8,
|10, 6, 4, 12,
|8, 6, 4, 8,
|6, 2, 4, 6,
|10, 4, 6, 6,
|12, 4, 6, 10,
|6, 4, 2, 4,
|8, 6, 2, 8,
|8, 4, 2, 8,
|6, 2, 2, 4,
|6, 2, 2, 6,
|12, 4, 2, 6,
|6, 8, 2, 10,
|6, 6, 2, 8,
|6, 4, 2, 4,
|6, 2, 2, 2,
|2, 2, 2, 2,
|4, 4, 2, 4,
|6, 4, 2, 10,
|6, 8, 2, 10,
|6, 4, 2, 10,
|6, 4, 2, 4,
|2, 4, 2, 4,
|2, 2, 2, 4|];
